
Gurobi 9.5.0 (win64) logging started Thu Jun 23 14:50:16 2022

Set parameter LogFile to value "../results/logs/log_facebook_combined_17_250_2022_06_23_14_50.log"
Gurobi Optimizer version 9.5.0 build v9.5.0rc5 (win64)
Thread count: 6 physical cores, 12 logical processors, using up to 12 threads
Optimize a model with 1019 rows, 8078 columns and 27379 nonzeros
Model fingerprint: 0xdfaab1b8
Variable types: 0 continuous, 8078 integer (8078 binary)
Coefficient statistics:
  Matrix range     [1e+00, 2e+01]
  Objective range  [1e+00, 1e+00]
  Bounds range     [1e+00, 1e+00]
  RHS range        [1e+00, 3e+02]
Found heuristic solution: objective 2061.0000000
Presolve removed 55 rows and 6580 columns
Presolve time: 0.04s
Presolved: 964 rows, 1498 columns, 17178 nonzeros
Variable types: 0 continuous, 1498 integer (1418 binary)
Found heuristic solution: objective 2111.0000000

Root relaxation: objective 2.547263e+03, 763 iterations, 0.01 seconds (0.01 work units)

    Nodes    |    Current Node    |     Objective Bounds      |     Work
 Expl Unexpl |  Obj  Depth IntInf | Incumbent    BestBd   Gap | It/Node Time

     0     0 2547.26311    0   92 2111.00000 2547.26311  20.7%     -    0s
H    0     0                    2503.0000000 2547.26311  1.77%     -    0s
H    0     0                    2507.0000000 2547.26311  1.61%     -    0s
H    0     0                    2512.0000000 2547.26311  1.40%     -    0s
     0     0 2542.86689    0  152 2512.00000 2542.86689  1.23%     -    0s
H    0     0                    2526.0000000 2542.86689  0.67%     -    0s
     0     0 2541.46213    0  172 2526.00000 2541.46213  0.61%     -    0s
     0     0 2541.42516    0  169 2526.00000 2541.42516  0.61%     -    0s
     0     0 2541.42038    0  158 2526.00000 2541.42038  0.61%     -    0s
H    0     0                    2531.0000000 2538.32498  0.29%     -    0s
     0     0 2537.72526    0  181 2531.00000 2537.72526  0.27%     -    0s
     0     0 2537.13335    0  137 2531.00000 2537.13335  0.24%     -    0s
     0     0 2536.87257    0  151 2531.00000 2536.87257  0.23%     -    0s
     0     0 2536.68582    0  150 2531.00000 2536.68582  0.22%     -    0s
     0     0 2536.63969    0  134 2531.00000 2536.63969  0.22%     -    0s
     0     0 2536.62109    0  147 2531.00000 2536.62109  0.22%     -    0s
     0     0 2536.62098    0  160 2531.00000 2536.62098  0.22%     -    0s
H    0     0                    2532.0000000 2536.62098  0.18%     -    0s
     0     0 2535.39160    0   99 2532.00000 2535.39160  0.13%     -    0s
H    0     0                    2533.0000000 2535.39160  0.09%     -    0s
     0     0 2534.98159    0   67 2533.00000 2534.98159  0.08%     -    0s
     0     0 2534.88967    0   66 2533.00000 2534.88967  0.07%     -    0s
     0     0 2534.87943    0   71 2533.00000 2534.87943  0.07%     -    0s
     0     0 2534.87938    0   71 2533.00000 2534.87938  0.07%     -    0s
     0     0 2534.63518    0   72 2533.00000 2534.63518  0.06%     -    0s
     0     0 2534.63518    0   45 2533.00000 2534.63518  0.06%     -    0s
     0     0 2534.63518    0   55 2533.00000 2534.63518  0.06%     -    0s
     0     0 2534.63518    0   49 2533.00000 2534.63518  0.06%     -    0s
     0     0 2534.63518    0   50 2533.00000 2534.63518  0.06%     -    0s
     0     0 2534.63518    0   50 2533.00000 2534.63518  0.06%     -    0s
     0     0 2534.63518    0   51 2533.00000 2534.63518  0.06%     -    0s
     0     0 2534.63518    0   64 2533.00000 2534.63518  0.06%     -    0s
     0     0 2534.61527    0   60 2533.00000 2534.61527  0.06%     -    0s
     0     0 2534.52740    0   57 2533.00000 2534.52740  0.06%     -    0s
     0     0 2534.45982    0   59 2533.00000 2534.45982  0.06%     -    0s
     0     0 2534.45967    0   61 2533.00000 2534.45967  0.06%     -    0s
     0     0 2534.25583    0   37 2533.00000 2534.25583  0.05%     -    0s
     0     0     cutoff    0      2533.00000 2533.00000  0.00%     -    0s

Cutting planes:
  Gomory: 22
  Cover: 3
  Implied bound: 6
  MIR: 36
  StrongCG: 5
  GUB cover: 29
  Zero half: 1
  RLT: 22
  Relax-and-lift: 3
  PSD: 1

Explored 1 nodes (3194 simplex iterations) in 0.66 seconds (0.38 work units)
Thread count was 12 (of 12 available processors)

Solution count 10: 2533 2533 2532 ... 2503

Optimal solution found (tolerance 0.00e+00)
Best objective 2.533000000000e+03, best bound 2.533000000000e+03, gap 0.0000%
